StudentsNr = 10;
InstructorsNr = 92;
DaysNr = 2;
SlotsPerDay = 20;
AvailabilitySlotsLenght = 20;
RoomNr = 2;
ProgrammNr = 2;
DegreeNr = 3;
RolesNr = 0;
CoursesNr = 9;
InstructorsProgramm = [{1, 2}, {1}, {2}, {1}, {1}, {1}, {2}, {1, 2}, {2}, {2}, {1}, {1}, {2}, {2}, {2}, {1}, {2}, {1}, {2}, {1}, {1}, {1, 2}, {1}, {2}, {1, 2}, {2}, {2}, {2}, {2}, {2}, {1, 2}, {2}, {1}, {1}, {1}, {2}, {1}, {2}, {2}, {1}, {1}, {1}, {2}, {2}, {2}, {1, 2}, {1, 2}, {1, 2}, {2}, {1, 2}, {1, 2}, {1}, {1}, {2}, {1}, {1}, {1, 2}, {1}, {1, 2}, {1}, {2}, {1}, {2}, {1}, {1}, {2}, {2}, {1}, {1, 2}, {1, 2}, {1}, {1, 2}, {2}, {2}, {1}, {1, 2}, {1}, {2}, {1, 2}, {1}, {2}, {2}, {2}, {1, 2}, {1}, {2}, {2}, {1}, {2}, {1, 2}, {1}, {1}];
InstructorRolesPerProgramm = array2d(1..ProgrammNr,{},[]);
InstructorsAvailability = [|0, 1, |1, 1, |1, 1, |0, 1, |1, 1, |1, 1, |0, 1, |1, 1, |0, 1, |0, 1, |0, 0, |0, 1, |0, 1, |1, 1, |1, 1, |1, 1, |0, 1, |1, 1, |0, 0, |0, 1, |1, 1, |1, 0, |0, 1, |1, 1, |0, 0, |0, 1, |1, 1, |0, 1, |1, 0, |1, 0, |0, 0, |0, 0, |1, 0, |1, 1, |0, 1, |1, 1, |1, 0, |0, 1, |1, 1, |0, 0, |0, 1, |0, 1, |1, 1, |0, 1, |1, 1, |1, 1, |0, 1, |0, 0, |0, 0, |0, 1, |0, 1, |1, 1, |1, 1, |0, 1, |0, 1, |1, 1, |0, 0, |1, 1, |1, 1, |0, 0, |1, 1, |1, 1, |1, 1, |0, 0, |1, 1, |0, 1, |1, 1, |1, 1, |1, 0, |1, 1, |1, 1, |0, 1, |0, 0, |1, 1, |1, 0, |0, 1, |0, 0, |1, 1, |1, 1, |1, 1, |1, 1, |1, 1, |1, 1, |1, 1, |0, 1, |1, 1, |1, 1, |0, 0, |0, 1, |1, 1, |1, 1, |1, 1|];
StudentsProgramm = [1, 1, 2, 2, 2, 1, 2, 2, 2, 1];
StudentsDegree = [2, 3, 1, 3, 1, 2, 2, 1, 3, 1];
StudentsSupervisorId = [34, 79, 43, 28, 57, 25, 66, 31, 22, 46];
StudentsCourseIds = [{2, 3, 4, 5, 6, 7, 8, 9}, {1, 2, 3, 4, 5, 6, 7, 9}, {4, 8}, {1, 2, 3, 4, 5, 6, 8, 9}, {4, 9}, {1, 2, 3, 4, 5, 6, 7, 9}, {1, 2, 3, 4, 6, 7, 8, 9}, {5, 9}, {1, 2, 3, 4, 6, 7, 8, 9}, {2, 5}];
StudentsAvailability = [|1, 1, |1, 0, |0, 0, |0, 0, |1, 1, |0, 0, |0, 1, |0, 1, |0, 0, |1, 1|];
TheoryticalMinCard = [8, 8, 3, 8, 2, 8, 8, 2, 9, 3];
CoursesInstructorIds = [{2, 3, 5, 7, 11, 12, 20, 23, 25, 26, 27, 28, 29, 33, 38, 40, 43, 44, 48, 49, 51, 55, 56, 58, 61, 63, 64, 65, 67, 68, 71, 75, 76, 78, 81, 82, 84, 85, 87, 88, 89, 90}, {13, 37, 40, 79}, {5, 8, 10, 11, 12, 13, 16, 19, 20, 26, 36, 42, 43, 55, 58, 60, 63, 64, 68, 74, 75, 79, 82, 85}, {2, 4, 5, 6, 7, 8, 11, 13, 14, 18, 20, 21, 25, 28, 29, 32, 35, 38, 40, 41, 42, 44, 45, 46, 49, 50, 51, 55, 59, 61, 62, 63, 64, 68, 69, 70, 73, 75, 81, 82, 83, 84, 86, 89, 92}, {3, 8, 9, 13, 16, 18, 20, 21, 22, 29, 34, 40, 42, 47, 48, 53, 59, 63, 65, 70, 71, 74, 77, 86, 87}, {6, 44, 62, 83}, {1, 11, 15, 16, 26, 30, 36, 38, 41, 44, 54, 58, 59, 60, 61, 62, 64, 66, 70, 72, 75, 78, 88}, {1, 2, 4, 9, 12, 15, 17, 20, 23, 25, 27, 36, 38, 41, 46, 49, 52, 59, 60, 61, 63, 67, 72, 76, 78, 79, 80, 83, 88, 90, 92}, {1, 2, 5, 6, 11, 12, 16, 17, 18, 20, 21, 24, 25, 26, 27, 28, 29, 30, 31, 32, 33, 35, 36, 38, 39, 40, 41, 42, 43, 44, 45, 47, 48, 50, 52, 54, 56, 57, 58, 60, 62, 63, 65, 66, 67, 69, 70, 71, 74, 76, 77, 79, 81, 87, 89, 92}];
RolesDemands = [];
RolesContinuity = [];
ExamLen = [1, 1, 1, 1, 1, 1, 1, 1, 1, 1];
LunchTsMinLen = 1;
LunchStarts = [7..15, 28..32];
SupervisorAvailable = 5;
OptimalLunchLenght = [3, 1];
OptimalStartTs = [0, 0];
OptimalFinishTs = [1, 20];
MinimizeRooms = 400;
RolesSoftContinuity = array2d(1..2,{},[]);
SameDegreeInRoom = 20;
Mergeability = 1;
